CoPlot.drawVersion(6.300);
setDrawingBackgroundColor(Color2.orange0);
setFont(0,"helvet");
setFont(1,"tmsrmn");
setFont(2,"cour");
setFont(3,"marker");
setFont(4,"greek");
setFont(5,"");
setFont(6,"");
setFont(7,"");
setFont(8,"");
setFont(9,"");
setFont(10,"");
setFont(11,"");
setFont(12,"");
setFont(13,"");
setFont(14,"");
setYBounds(0, 6);
setGridSize(0.1);
setGroupForNewObjects(5);
setSmoothing(0);
setGraphArrayX("1, 2, 3, 4, 5, 6, 7, 8, 9, 10");
setGraphArrayY("1, 2, 3, 4, 5, 6, 7, 8, 9, 10");

setGroup(5);
setBackgroundColor(Color2.notDrawn);
setLineColor(Color2.notDrawn);
setTextColor(Color2.blue4);
setTextFont(0);
setTextHeight(0.25);
setTextPosition(4);
setShapeType(34);
setShapeHAlign(3);
setShapeVAlign(10);
setShapeWidth(.);
setShapeHeight(.);
setShapeBorder(1);
setShapeAngle(0);
setShapeShadow(0);
setCharacters("<b>Current ERDDAP Web Services");
create("text", "0.4, 5.2");

setTextColor(Color2.black);
setTextHeight(0.18);
setTextPosition(0);
setCharacters("&bull;griddap - Clients send DAP hyperslab requests<br> &nbsp; and get grid data or graphs in their desired file format");
create("text", "0.4, 4.6");

setCharacters("&bull;tabledap - Clients send DAP constraint requests <br>&nbsp; and get tabular data or graphs in their desired file format");
create("text", "0.4, 3.8");

setTextColor(Color2.blue4);
setTextHeight(0.25);
setTextPosition(4);
setCharacters("<b>Future ERDDAP Web Services (?)");
create("text", "0.4, 2.6");

setTextColor(Color2.black);
setTextHeight(0.18);
setCharacters("&bull;Tabular Data: SOS, CSML");
create("text", "0.4, 2.1");

setCharacters("&bull;Gridded Data: WCS, CSML");
create("text", "0.4, 1.6999999999999997");

setCharacters("&bull;WFS (harder)");
create("text", "0.4, 1.3000000000000003");

setCharacters("&bull;Syndication: RSS, Publish and Subscribe");
create("text", "0.4, 0.9000000000000001");

setTextPosition(0);
setCharacters("&bull;WMS - Web Map Service (OGC)");
create("text", "0.4, 3.2");

setTextPosition(4);
setCharacters("&bull;?");
create("text", "0.4, 0.5000000000000001");

endOfFile();
