CoPlot.drawVersion(6.300);
setDrawingBackgroundColor(Color2.orange0);
setFont(0,"helvet");
setFont(1,"tmsrmn");
setFont(2,"cour");
setFont(3,"marker");
setFont(4,"greek");
setFont(5,"");
setFont(6,"");
setFont(7,"");
setFont(8,"");
setFont(9,"");
setFont(10,"");
setFont(11,"");
setFont(12,"");
setFont(13,"");
setFont(14,"");
setYBounds(0, 6);
setGridSize(0.1);
setGroupForNewObjects(5);
setSmoothing(0);
setGraphArrayX("1, 2, 3, 4, 5, 6, 7, 8, 9, 10");
setGraphArrayY("1, 2, 3, 4, 5, 6, 7, 8, 9, 10");

setGroup(5);
setBackgroundColor(Color2.purple4);
setLineColor(Color2.notDrawn);
setTextColor(Color2.orange4);
setTextFont(0);
setTextHeight(0.14);
setTextPosition(4);
setShapeType(70);
setShapeHAlign(4);
setShapeVAlign(10);
setShapeWidth(.);
setShapeHeight(.);
setShapeBorder(0.018);
setShapeAngle(15);
setShapeShadow(2);
setCharacters("<b>But wait!<br>There's more!");
create("text", "1.0999999999999996, 5.5");

setBackgroundColor(Color2.notDrawn);
setTextColor(Color2.blue4);
setTextHeight(0.22);
setShapeType(34);
setShapeBorder(1);
setShapeAngle(0);
setShapeShadow(0);
setCharacters("<b>Other ERDDAP Features");
create("text", "4, 5.5");

setTextColor(Color2.red4);
setTextHeight(0.18);
setTextPosition(3);
setShapeHAlign(3);
setCharacters("Problem: Large data requests use lots of memory.");
create("text", "0.3, 2");

setTextColor(Color2.green6);
setCharacters("Solution: ERDDAP processes data in chunks.");
create("text", "0.3, 1.6999999999999997");

setTextColor(Color2.red4);
setCharacters("Problem: Some data sources have little metadata.");
create("text", "0.3, 3.4");

setTextColor(Color2.green6);
setCharacters("Solution: Administrators can add/change/remove dataset attributes.");
create("text", "0.3, 3.0999999999999996");

setTextColor(Color2.red4);
setCharacters("Problem #1: Searching for datasets is difficult.");
create("text", "0.30000000000000004, 5");

setTextColor(Color2.green6);
setCharacters("Solution: Full-text search of metadata; categorizes datasets by ...");
create("text", "0.3, 4.7");

setTextColor(Color2.red4);
setCharacters("Problem #4: Datasets incompatible because time stored differently.");
create("text", "0.3, 4.3");

setTextColor(Color2.green6);
setShapeVAlign(5);
setCharacters("Solution: ERDDAP converts to \"<small>seconds since 1970-01-01T00:00:00Z</small>\"<br=.8>&nbsp; &nbsp; or as ISO 8601:2004 \"extended\" format strings.");
create("text", "0.3, 4");

setTextColor(Color2.red4);
setShapeVAlign(10);
setCharacters("Problem: Some other data services respond slowly.");
create("text", "0.3, 2.6999999999999997");

setTextColor(Color2.green6);
setCharacters("Solution: ERDDAP is built for speed. (Data sources are limiting.)");
create("text", "0.3, 2.4");

endOfFile();
